CapLotSizing_PM/src/Instancias/NCHSLT/6i18p2m/NBB05.OUT
 CG ITER, OVMR, OVMRUB =           1   47049.3046875   47049.2968750
 CG ITER, OVMR, OVMRUB =           2   47049.3007812   47049.2968750
 CG ITER, OVMR, OVMRUB =           3   47049.3007812   47049.2968750
 CG ITER, OVMR, OVMRUB =           4   47049.3007812   47049.2968750
 CG ITER, OVMR, OVMRUB =           5   45745.5195312   47049.2968750
 CG ITER, OVMR, OVMRUB =           6   46638.3125000   47049.2968750
 CG ITER, OVMR, OVMRUB =           7   44813.1328125   47049.2968750
 CG ITER, OVMR, OVMRUB =           8   40026.3476562   47049.2968750
 CG ITER, OVMR, OVMRUB =           9   39882.6171875   47049.2968750
 CG ITER, OVMR, OVMRUB =          10   40732.2382812   47049.2968750
 CG ITER, OVMR, OVMRUB =          11   40366.4296875   47049.2968750
 CG ITER, OVMR, OVMRUB =          12   40696.4335938   47049.2968750
 CG ITER, OVMR, OVMRUB =          13   40956.2695312   47049.2968750
 CG ITER, OVMR, OVMRUB =          14   41069.5742188   47049.2968750
 CG ITER, OVMR, OVMRUB =          15   41191.9687500   47049.2968750
 CG ITER, OVMR, OVMRUB =          16   41188.7890625   47049.2968750
 CG ITER, OVMR, OVMRUB =          17   41241.4882812   47049.2968750
 CG ITER, OVMR, OVMRUB =          18   41316.0742188   47049.2968750
 CG ITER, OVMR, OVMRUB =          19   41360.5898438   45777.6953125
 CG ITER, OVMR, OVMRUB =          20   41410.4531250   44816.7929688
 CG ITER, OVMR, OVMRUB =          21   41451.0742188   44816.7929688
 CG ITER, OVMR, OVMRUB =          22   41479.9570312   44816.7929688
 CG ITER, OVMR, OVMRUB =          23   41507.2929688   44816.7929688
 CG ITER, OVMR, OVMRUB =          24   41523.8554688   44816.7929688
 CG ITER, OVMR, OVMRUB =          25   41528.9179688   44816.7929688
 CG ITER, OVMR, OVMRUB =          26   41539.8203125   44816.7929688
 CG ITER, OVMR, OVMRUB =          27   41552.1757812   44816.7929688
 CG ITER, OVMR, OVMRUB =          28   41435.2773438   44816.7929688
 CG ITER, OVMR, OVMRUB =          29   41399.1953125   44816.7929688
 CG ITER, OVMR, OVMRUB =          30   41398.6640625   44816.7929688
 CG ITER, OVMR, OVMRUB =          31   41397.3593750   44816.7929688
 CG ITER, OVMR, OVMRUB =          32   41397.3593750   44816.7929688
OVLB =   41397.3593750 OVLUB =   44816.7929688 TIME =       2.1300001
